# Objective value = 1.9262778780578474e+03
x[0] 0
x[1] 1
x[2] 1
x[3] 1
x[4] 1
x[5] 0
x[6] 1
x[7] 1
x[8] 1
x[9] 1
x[10] 0
x[11] 1
x[12] 0
x[13] 0
x[14] 1
x[15] 0
x[16] 1
x[17] 1
x[18] 1
x[19] 0
x[20] 1
x[21] 1
x[22] 1
x[23] 1
x[24] 0
x[25] 1
x[26] 1
x[27] 0
x[28] 1
x[29] 1
x[30] 0
x[31] 1
x[32] 0
x[33] 0
x[34] 0
x[35] 1
x[36] 1
x[37] 0
x[38] 0
x[39] 0
x[40] 1
x[41] 0
x[42] 1
x[43] 1
x[44] 1
x[45] 1
x[46] 1
x[47] 1
x[48] 1
x[49] 1
x[50] 0
x[51] 1
x[52] 0
x[53] 1
x[54] 1
x[55] 0
x[56] 0
x[57] 1
x[58] 1
x[59] 0
x[60] 1
x[61] 0
x[62] 1
x[63] 1
x[64] 1
x[65] 1
x[66] 0
x[67] 0
x[68] 0
x[69] 1
x[70] 0
x[71] 0
x[72] 1
x[73] 0
x[74] 1
x[75] 0
x[76] 1
x[77] 0
x[78] 1
x[79] 0
x[80] 0
x[81] 0
x[82] 1
x[83] 1
x[84] 0
x[85] 1
x[86] 0
x[87] 0
x[88] 0
x[89] 0
x[90] 1
x[91] 1
x[92] 0
x[93] 1
x[94] 1
x[95] 0
x[96] 0
x[97] 1
x[98] 1
x[99] 1
x[100] 0
x[101] 0
x[102] 0
x[103] 1
x[104] 0
x[105] 1
x[106] 0
x[107] 1
x[108] 0
x[109] 0
x[110] 0
x[111] 0
x[112] 1
x[113] 1
x[114] 1
x[115] 1
x[116] 0
x[117] 1
x[118] 0
x[119] 1
x[120] 1
x[121] 0
x[122] 1
x[123] 1
x[124] 1
x[125] 1
x[126] 1
x[127] 0
x[128] 1
x[129] 1
x[130] 0
x[131] 0
x[132] 1
x[133] 0
x[134] 1
x[135] 1
x[136] 0
x[137] 0
x[138] 0
x[139] 1
x[140] 1
x[141] 1
x[142] 0
x[143] 1
x[144] 0
x[145] 1
x[146] 1
x[147] 1
x[148] 0
x[149] 1
x[150] 1
x[151] 0
x[152] 1
x[153] 1
x[154] 1
x[155] 0
x[156] 0
x[157] 0
x[158] 0
x[159] 0
x[160] 0
x[161] 0
x[162] 1
x[163] 1
x[164] 0
x[165] 1
x[166] 0
x[167] 0
x[168] 0
x[169] 0
x[170] 1
x[171] 0
x[172] 0
x[173] 1
x[174] 0
x[175] 0
x[176] 1
x[177] 1
x[178] 1
x[179] 1
x[180] 0
x[181] 0
x[182] 1
x[183] 0
x[184] 0
x[185] 0
x[186] 0
x[187] 0
x[188] 1
x[189] 0
x[190] 1
x[191] 1
x[192] 0
x[193] 0
x[194] 0
x[195] 1
x[196] 0
x[197] 0
x[198] 0
x[199] 0
x[200] 1
x[201] 1
x[202] 0
x[203] 1
x[204] 1
x[205] 1
x[206] 0
x[207] 0
x[208] 1
x[209] 1
x[210] 1
x[211] 1
x[212] 1
x[213] 1
x[214] 0
x[215] 1
x[216] 1
x[217] 1
x[218] 0
x[219] 0
x[220] 0
x[221] 0
x[222] 1
x[223] 1
x[224] 1
x[225] 1
x[226] 0
x[227] 0
x[228] 1
x[229] 0
x[230] 1
x[231] 0
x[232] 0
x[233] 0
x[234] 1
x[235] 0
x[236] 1
x[237] 0
x[238] 1
x[239] 0
x[240] 1
x[241] 1
x[242] 1
x[243] 1
x[244] 1
x[245] 1
x[246] 1
x[247] 1
x[248] 0
x[249] 0
x[250] 0
x[251] 1
x[252] 1
x[253] 1
x[254] 0
x[255] 1
x[256] 0
x[257] 1
x[258] 1
x[259] 0
x[260] 1
x[261] 0
x[262] 0
x[263] 1
x[264] 1
x[265] 0
x[266] 1
x[267] 1
x[268] 1
x[269] 0
x[270] 1
x[271] 0
x[272] 0
x[273] 0
x[274] 1
x[275] 0
x[276] 1
x[277] 1
x[278] 1
x[279] 1
x[280] 1
x[281] 0
x[282] 1
x[283] 1
x[284] 1
x[285] 0
x[286] 1
x[287] 1
x[288] 0
x[289] 1
x[290] 0
x[291] 1
x[292] 0
x[293] 0
x[294] 0
x[295] 1
x[296] 1
x[297] 0
x[298] 0
x[299] 1
x[300] 1
x[301] 1
x[302] 0
x[303] 0
x[304] 0
x[305] 0
x[306] 1
x[307] 1
x[308] 1
x[309] 0
x[310] 0
x[311] 1
x[312] 1
x[313] 0
x[314] 0
x[315] 1
x[316] 0
x[317] 0
x[318] 0
x[319] 0
x[320] 1
x[321] 0
x[322] 0
x[323] 0
x[324] 1
x[325] 1
x[326] 1
x[327] 0
x[328] 1
x[329] 1
x[330] 0
x[331] 0
x[332] 1
x[333] 0
x[334] 0
x[335] 0
x[336] 1
x[337] 0
x[338] 1
x[339] 1
x[340] 1
x[341] 1
x[342] 1
x[343] 0
x[344] 1
x[345] 0
x[346] 0
x[347] 1
x[348] 1
x[349] 0
x[350] 1
x[351] 0
x[352] 0
x[353] 0
x[354] 1
x[355] 1
x[356] 1
x[357] 0
x[358] 1
x[359] 1
x[360] 0
x[361] 1
x[362] 1
x[363] 1
x[364] 0
x[365] 0
x[366] 1
x[367] 1
x[368] 0
x[369] 1
x[370] 0
x[371] 0
x[372] 0
x[373] 0
x[374] 0
x[375] 1
x[376] 1
x[377] 1
x[378] 1
x[379] 1
x[380] 0
x[381] 0
x[382] 1
x[383] 1
x[384] 0
x[385] 1
x[386] 1
x[387] 1
x[388] 1
x[389] 0
x[390] 1
x[391] 1
x[392] 0
x[393] 0
x[394] 0
x[395] 1
x[396] 0
x[397] 1
x[398] 1
x[399] 0
x[400] 1
x[401] 0
x[402] 1
x[403] 1
x[404] 0
x[405] 1
x[406] 1
x[407] 0
x[408] 1
x[409] 1
x[410] 1
x[411] 0
x[412] 1
x[413] 1
x[414] 1
x[415] 1
x[416] 1
x[417] 1
x[418] 1
x[419] 1
x[420] 0
x[421] 1
x[422] 0
x[423] 1
x[424] 1
x[425] 0
x[426] 1
x[427] 1
x[428] 0
x[429] 1
x[430] 1
x[431] 1
x[432] 1
x[433] 0
x[434] 0
x[435] 1
x[436] 1
x[437] 1
x[438] 1
x[439] 1
x[440] 0
x[441] 1
x[442] 0
x[443] 0
x[444] 1
x[445] 0
x[446] 1
x[447] 0
x[448] 0
x[449] 0
x[450] 1
x[451] 0
x[452] 0
x[453] 0
x[454] 1
x[455] 1
x[456] 1
x[457] 1
x[458] 0
x[459] 1
x[460] 1
x[461] 1
x[462] 1
x[463] 1
x[464] 1
x[465] 0
x[466] 0
x[467] 1
x[468] 1
x[469] 0
x[470] 0
x[471] 0
x[472] 1
x[473] 1
x[474] 0
x[475] 0
x[476] 0
x[477] 1
x[478] 1
x[479] 0
x[480] 1
x[481] 1
x[482] 1
x[483] 0
x[484] 0
x[485] 0
x[486] 0
x[487] 0
x[488] 0
x[489] 1
x[490] 1
x[491] 0
x[492] 1
x[493] 0
x[494] 0
x[495] 0
x[496] 0
x[497] 0
x[498] 0
x[499] 1
x[500] 0
x[501] 0
x[502] 1
x[503] 0
x[504] 0
x[505] 1
x[506] 1
x[507] 1
x[508] 1
x[509] 1
x[510] 0
x[511] 0
x[512] 0
x[513] 0
x[514] 1
x[515] 1
x[516] 1
x[517] 0
x[518] 1
x[519] 1
x[520] 1
x[521] 1
x[522] 1
x[523] 1
x[524] 0
x[525] 0
x[526] 0
x[527] 1
x[528] 1
x[529] 1
x[530] 0
x[531] 0
x[532] 1
x[533] 1
x[534] 1
x[535] 0
x[536] 1
x[537] 0
x[538] 1
x[539] 0
x[540] 1
x[541] 1
x[542] 1
x[543] 1
x[544] 1
x[545] 0
x[546] 1
x[547] 1
x[548] 1
x[549] 1
x[550] 0
x[551] 1
x[552] 1
x[553] 0
x[554] 1
x[555] 1
x[556] 1
x[557] 1
x[558] 1
x[559] 1
x[560] 0
x[561] 0
x[562] 1
x[563] 1
x[564] 0
x[565] 1
x[566] 1
x[567] 1
x[568] 1
x[569] 0
x[570] 0
x[571] 0
x[572] 1
x[573] 1
x[574] 1
x[575] 0
x[576] 0
x[577] 0
x[578] 1
x[579] 1
x[580] 1
x[581] 1
x[582] 0
x[583] 0
x[584] 1
x[585] 1
x[586] 1
x[587] 0
x[588] 1
x[589] 1
x[590] 0
x[591] 1
x[592] 1
x[593] 1
x[594] 1
x[595] 0
x[596] 1
x[597] 1
x[598] 0
x[599] 0
x[600] 1
x[601] 1
x[602] 1
x[603] 1
x[604] 0
x[605] 0
x[606] 1
x[607] 1
x[608] 1
x[609] 1
x[610] 0
x[611] 1
x[612] 1
x[613] 1
x[614] 1
x[615] 0
x[616] 1
x[617] 1
x[618] 1
x[619] 0
x[620] 0
x[621] 1
x[622] 1
x[623] 1
x[624] 0
x[625] 1
x[626] 0
x[627] 0
x[628] 1
x[629] 0
x[630] 0
x[631] 0
x[632] 1
x[633] 0
x[634] 1
x[635] 1
x[636] 0
x[637] 0
x[638] 1
x[639] 0
x[640] 1
x[641] 1
x[642] 1
x[643] 0
x[644] 0
x[645] 1
x[646] 0
x[647] 1
x[648] 1
x[649] 0
x[650] 1
x[651] 1
x[652] 0
x[653] 0
x[654] 0
x[655] 1
x[656] 0
x[657] 0
x[658] 1
x[659] 0
x[660] 0
x[661] 1
x[662] 1
x[663] 0
x[664] 1
x[665] 1
x[666] 1
x[667] 1
x[668] 0
x[669] 0
x[670] 0
x[671] 1
x[672] 1
x[673] 1
x[674] 0
x[675] 0
x[676] 1
x[677] 1
x[678] 1
x[679] 0
x[680] 0
x[681] 1
x[682] 1
x[683] 1
x[684] 1
x[685] 1
x[686] 0
x[687] 1
x[688] 0
x[689] 0
x[690] 0
x[691] 1
x[692] 1
x[693] 0
x[694] 1
x[695] 0
x[696] 0
x[697] 1
x[698] 0
x[699] 1
x[700] 0
x[701] 0
x[702] 0
x[703] 1
x[704] 1
x[705] 1
x[706] 0
x[707] 1
x[708] 0
x[709] 1
x[710] 1
x[711] 1
x[712] 0
x[713] 0
x[714] 1
x[715] 0
x[716] 1
x[717] 1
x[718] 0
x[719] 0
x[720] 1
x[721] 0
x[722] 0
x[723] 1
x[724] 1
x[725] 1
x[726] 1
x[727] 0
x[728] 1
x[729] 1
x[730] 1
x[731] 0
x[732] 0
x[733] 1
x[734] 1
x[735] 0
x[736] 0
x[737] 1
x[738] 1
x[739] 1
x[740] 0
x[741] 1
x[742] 1
x[743] 0
x[744] 0
x[745] 1
x[746] 1
x[747] 1
x[748] 1
x[749] 0
x[750] 0
x[751] 0
x[752] 1
x[753] 1
x[754] 1
x[755] 1
x[756] 0
x[757] 0
x[758] 1
x[759] 1
x[760] 1
x[761] 1
x[762] 1
x[763] 0
x[764] 1
x[765] 1
x[766] 1
x[767] 1
x[768] 1
x[769] 0
x[770] 1
x[771] 0
x[772] 0
x[773] 0
x[774] 0
x[775] 1
x[776] 0
x[777] 0
x[778] 0
x[779] 1
x[780] 1
x[781] 0
x[782] 1
x[783] 0
x[784] 0
x[785] 1
x[786] 1
x[787] 1
x[788] 0
x[789] 0
x[790] 0
x[791] 0
x[792] 1
x[793] 0
x[794] 0
x[795] 0
x[796] 0
x[797] 1
x[798] 1
x[799] 1
x[800] 0
x[801] 0
x[802] 0
x[803] 1
x[804] 0
x[805] 1
x[806] 1
x[807] 1
x[808] 1
x[809] 1
x[810] 1
x[811] 0
x[812] 1
x[813] 1
x[814] 0
x[815] 1
x[816] 1
x[817] 1
x[818] 1
x[819] 1
x[820] 1
x[821] 1
x[822] 0
x[823] 1
x[824] 1
x[825] 1
x[826] 0
x[827] 1
x[828] 1
x[829] 0
x[830] 1
x[831] 1
x[832] 0
x[833] 1
x[834] 0
x[835] 0
x[836] 0
x[837] 1
x[838] 1
x[839] 1
x[840] 1
x[841] 0
x[842] 0
x[843] 1
x[844] 1
x[845] 0
x[846] 0
x[847] 1
x[848] 0
x[849] 1
x[850] 1
x[851] 0
x[852] 0
x[853] 0
x[854] 1
x[855] 0
x[856] 0
x[857] 0
x[858] 0
x[859] 0
x[860] 1
x[861] 1
x[862] 1
x[863] 1
x[864] 0
x[865] 1
x[866] 0
x[867] 0
x[868] 0
x[869] 0
x[870] 0
x[871] 1
x[872] 1
x[873] 0
x[874] 0
x[875] 0
x[876] 1
x[877] 1
x[878] 0
x[879] 1
x[880] 1
x[881] 0
x[882] 0
x[883] 1
x[884] 1
x[885] 1
x[886] 1
x[887] 1
x[888] 0
x[889] 1
x[890] 0
x[891] 0
x[892] 1
x[893] 0
x[894] 1
x[895] 1
x[896] 0
x[897] 0
x[898] 1
x[899] 0
x[900] 0
x[901] 0
x[902] 1
x[903] 0
x[904] 1
x[905] 0
x[906] 0
x[907] 1
x[908] 1
x[909] 1
x[910] 0
x[911] 0
x[912] 1
x[913] 1
x[914] 1
x[915] 1
x[916] 1
x[917] 1
x[918] 1
x[919] 0
x[920] 1
x[921] 0
x[922] 0
x[923] 0
x[924] 0
x[925] 1
x[926] 0
x[927] 0
x[928] 0
x[929] 1
x[930] 1
x[931] 1
x[932] 0
x[933] 0
x[934] 1
x[935] 0
x[936] 1
x[937] 1
x[938] 1
x[939] 1
x[940] 1
x[941] 1
x[942] 0
x[943] 1
x[944] 1
x[945] 1
x[946] 1
x[947] 0
x[948] 0
x[949] 1
x[950] 1
x[951] 0
x[952] 1
x[953] 1
x[954] 0
x[955] 0
x[956] 0
x[957] 0
x[958] 0
x[959] 1
x[960] 0
x[961] 1
x[962] 1
x[963] 1
x[964] 0
x[965] 1
x[966] 1
x[967] 0
x[968] 0
x[969] 0
x[970] 1
x[971] 0
x[972] 1
x[973] 1
x[974] 0
x[975] 1
x[976] 1
x[977] 1
x[978] 0
x[979] 1
x[980] 0
x[981] 1
x[982] 0
x[983] 1
x[984] 0
x[985] 0
x[986] 1
x[987] 1
x[988] 1
x[989] 1
x[990] 1
x[991] 1
x[992] 1
x[993] 0
x[994] 1
x[995] 1
x[996] 0
x[997] 1
x[998] 1
x[999] 1
